************************************************************************
file with basedata            : mm37_.bas
initial value random generator: 968543709
************************************************************************
projects                      :  1
jobs (incl. supersource/sink ):  12
horizon                       :  75
RESOURCES
  - renewable                 :  2   R
  - nonrenewable              :  2   N
  - doubly constrained        :  0   D
************************************************************************
PROJECT INFORMATION:
pronr.  #jobs rel.date duedate tardcost  MPM-Time
    1     10      0       17        2       17
************************************************************************
PRECEDENCE RELATIONS:
jobnr.    #modes  #successors   successors
   1        1          3           2   3   4
   2        3          3           7   8  11
   3        3          1           6
   4        3          2           5  10
   5        3          2           8  11
   6        3          2           7   9
   7        3          1          10
   8        3          1           9
   9        3          1          12
  10        3          1          12
  11        3          1          12
  12        1          0        
************************************************************************
REQUESTS/DURATIONS:
jobnr. mode duration  R 1  R 2  N 1  N 2
------------------------------------------------------------------------
  1      1     0       0    0    0    0
  2      1     3       6    7    3   10
         2     5       6    5    3    9
         3     8       5    2    2    9
  3      1     2       8    9    4    8
         2     4       7    8    4    8
         3     6       4    6    3    8
  4      1     8       9    7    9    6
         2     9       7    7    6    5
         3    10       6    4    6    5
  5      1     1       3    7    9    8
         2     2       3    4    9    6
         3     7       2    2    8    3
  6      1     6       3    5    6    6
         2     6       3    4    7    4
         3     7       3    3    5    2
  7      1     1       8    6    9    8
         2     1       8    7    6    8
         3     2       8    4    6    5
  8      1     2       9    2    7    4
         2     4       9    2    5    3
         3    10       8    1    2    1
  9      1     6       3    8    7    9
         2     8       2    7    5    5
         3    10       2    7    1    4
 10      1     2       6   10    5    7
         2     5       4    5    3    7
         3     6       4    4    2    7
 11      1     7       8    5    5    7
         2     7       8    5    4    8
         3     9       7    5    2    6
 12      1     0       0    0    0    0
************************************************************************
RESOURCEAVAILABILITIES:
  R 1  R 2  N 1  N 2
   11   10   43   55
************************************************************************
MAXIMAL LAGS:
from  to  type  delay
    1   12   ES      0
    1    2   ES      0
    2   12   ES      0
    1    3   ES      0
    3   12   ES      0
    1    4   ES      0
    4   12   ES      0
    1    5   ES      0
    5   12   ES      0
    1    6   ES      0
    6   12   ES      0
    1    7   ES      0
    7   12   ES      0
    1    8   ES      0
    8   12   ES      0
    1    9   ES      0
    9   12   ES      0
    1   10   ES      0
   10   12   ES      0
    1   11   ES      0
   11   12   ES      0
    1   12   ES      0
    2    7   SS     -8
    2    7   SE      6
    2    7   ES     -8
    2    7   EE     -3
    2    8   SS     11
    2    8   SE    -12
    2    8   ES      3
    2    8   EE      9
    2   11   SS     -1
    2   11   SE     -2
    2   11   ES     -5
    2   11   EE      1
    3    6   SS      1
    3    6   SE      9
    3    6   ES     12
    3    6   EE      0
    4    5   SS     12
    4    5   SE     12
    4    5   ES     10
    4    5   EE      5
    4   10   SS     -3
    4   10   SE     -2
    4   10   ES      6
    4   10   EE    -12
    5    8   SS      6
    5    8   SE    -11
    5    8   ES     -8
    5    8   EE     -8
    5   11   SS     -2
    5   11   SE      6
    5   11   ES      8
    5   11   EE      7
    6    7   SS      7
    6    7   SE      6
    7    6   SE      0
    6    7   ES      0
    6    7   EE      0
    6    9   SS     -6
    6    9   SE      0
    6    9   ES    -10
    6    9   EE      5
    7   10   SS      0
    7   10   SE     -6
    7   10   ES      3
    7   10   EE     -9
    8    9   SS     -2
    8    9   SE      6
    8    9   ES      2
    8    9   EE      8
************************************************************************
